NAME : G100_2132_01
COMMENT : Generated CVRP instance (n=100)
TYPE : CVRP
DIMENSION : 101
EDGE_WEIGHT_TYPE : EUC_2D
CAPACITY : 43
NODE_COORD_SECTION
1    500  500 
2    617  364 
3    826  511 
4    257  503 
5    766  371 
6    97   975 
7    544  157 
8    81   871 
9    851  69  
10   436  98  
11   73   46  
12   348  888 
13   484  150 
14   303  346 
15   372  519 
16   507  963 
17   861  301 
18   759  891 
19   253  61  
20   989  603 
21   131  10  
22   223  923 
23   577  832 
24   183  414 
25   541  259 
26   775  78  
27   212  895 
28   313  261 
29   833  556 
30   613  864 
31   458  389 
32   207  444 
33   11   57  
34   713  533 
35   426  156 
36   949  715 
37   564  37  
38   772  621 
39   944  694 
40   852  138 
41   532  859 
42   202  486 
43   901  890 
44   294  587 
45   434  201 
46   270  413 
47   36   200 
48   870  447 
49   673  537 
50   63   300 
51   7    841 
52   807  763 
53   415  397 
54   734  861 
55   136  509 
56   809  992 
57   480  917 
58   611  372 
59   999  487 
60   1000 516 
61   484  798 
62   328  541 
63   7    980 
64   705  98  
65   675  66  
66   351  564 
67   277  831 
68   358  194 
69   343  569 
70   516  521 
71   673  59  
72   465  521 
73   230  530 
74   576  401 
75   501  718 
76   178  174 
77   635  517 
78   490  742 
79   587  986 
80   717  113 
81   320  843 
82   319  277 
83   766  191 
84   396  344 
85   251  710 
86   801  887 
87   489  648 
88   37   45  
89   166  113 
90   791  793 
91   485  3   
92   731  809 
93   603  678 
94   788  879 
95   276  5   
96   785  712 
97   202  37  
98   343  77  
99   787  965 
100  391  391 
101  672  197 
DEMAND_SECTION
1    0   
2    10  
3    7   
4    7   
5    6   
6    7   
7    8   
8    7   
9    10  
10   8   
11   7   
12   6   
13   7   
14   5   
15   7   
16   10  
17   6   
18   8   
19   6   
20   5   
21   5   
22   10  
23   5   
24   8   
25   5   
26   9   
27   5   
28   6   
29   6   
30   8   
31   8   
32   6   
33   9   
34   9   
35   7   
36   8   
37   7   
38   6   
39   6   
40   8   
41   5   
42   5   
43   9   
44   9   
45   7   
46   5   
47   10  
48   5   
49   7   
50   10  
51   10  
52   6   
53   6   
54   10  
55   10  
56   7   
57   8   
58   8   
59   6   
60   7   
61   8   
62   10  
63   5   
64   9   
65   6   
66   6   
67   8   
68   10  
69   5   
70   7   
71   6   
72   9   
73   9   
74   6   
75   10  
76   8   
77   6   
78   7   
79   8   
80   7   
81   8   
82   10  
83   6   
84   8   
85   9   
86   9   
87   6   
88   8   
89   7   
90   10  
91   9   
92   8   
93   6   
94   6   
95   10  
96   5   
97   6   
98   10  
99   8   
100  9   
101  8   
DEPOT_SECTION
1
-1
EOF
